NAME : mag30
COMMENT : 30-point problem generated by rtrydev's generator
TYPE : WAREHOUSE
DIMENSION : 30
EDGE_WEIGHT_TYPE : EUC_2D
NODE_COORD_SECTION
1 378.75 237.49999503294646
2 150 106.24999875823661
3 187.5 106.24999875823661
4 150 137.49999751647323
5 187.5 137.49999751647323
6 150 168.74999627470984
7 187.5 168.74999627470984
8 150 199.99999503294646
9 187.5 199.99999503294646
10 300 106.24999875823661
11 337.5 106.24999875823661
12 300 137.49999751647323
13 337.5 137.49999751647323
14 300 168.74999627470984
15 337.5 168.74999627470984
16 300 199.99999503294646
17 337.5 199.99999503294646
18 450 106.24999875823661
19 487.5 106.24999875823661
20 450 137.49999751647323
21 487.5 137.49999751647323
22 450 168.74999627470984
23 487.5 168.74999627470984
24 450 199.99999503294646
25 487.5 199.99999503294646
26 600 106.24999875823661
27 637.5 106.24999875823661
28 600 137.49999751647323
29 637.5 137.49999751647323
30 600 168.74999627470984
31 637.5 168.74999627470984
EOF
